archive/demo_outputs/rsa_demo_benchmark_output/128/certs/0004.assert.smt2
; benchmark generated from python API
(set-info :status unknown)
(declare-fun p () Int)
(declare-fun q () Int)
(declare-fun n () Int)
(assert
 (= p 13803345206493234247))
(assert
 (= q 17347180459209944137))
(assert
 (= n 239449120237808684442358288233325259839))
(assert
 (= (* p q) n))
(assert
 (> p 1))
(assert
 (> q 1))
(check-sat)
